c Pigeonhole problem: 3 pigeons, 2 holes (UNSAT)
p cnf 6 9
c Pigeon 0 must be in some hole
1 2 0
c Pigeon 1 must be in some hole  
3 4 0
c Pigeon 2 must be in some hole
5 6 0
c No two pigeons in hole 0
-1 -3 0
-1 -5 0
-3 -5 0
c No two pigeons in hole 1
-2 -4 0
-2 -6 0
-4 -6 0